\ Model master model
\ LP format - for model browsing. Use MPS format to capture full model detail.
Minimize
  0.5 L
Subject To
 epigraph[0]: 1002 x[0,1] + 1023 x[0,2] + 440 x[0,3] + 984 x[0,4]
   + 823 x[0,5] + 931 x[0,6] + 993 x[0,7] + 328 x[0,8] + 587 x[0,9] - L
   <= 0
 epigraph[1]: 799 x[1,0] + 1100 x[1,2] + 478 x[1,3] + 403 x[1,4]
   + 303 x[1,5] + 848 x[1,6] + 670 x[1,7] + 536 x[1,8] + 885 x[1,9] - L
   <= 0
 epigraph[2]: 686 x[2,0] + 280 x[2,1] + 467 x[2,3] + 829 x[2,4]
   + 375 x[2,5] + 1065 x[2,6] + 862 x[2,7] + 533 x[2,8] + 798 x[2,9] - L
   <= 0
 epigraph[3]: 660 x[3,0] + 160 x[3,1] + 215 x[3,2] + 638 x[3,4]
   + 945 x[3,5] + 410 x[3,6] + 960 x[3,7] + 518 x[3,8] + 330 x[3,9] - L
   <= 0
 epigraph[4]: 234 x[4,0] + 222 x[4,1] + 856 x[4,2] + 760 x[4,3]
   + 564 x[4,5] + 486 x[4,6] + 149 x[4,7] + 1000 x[4,8] + 744 x[4,9] - L
   <= 0
 epigraph[5]: 762 x[5,0] + 720 x[5,1] + 910 x[5,2] + 294 x[5,3]
   + 799 x[5,4] + 510 x[5,6] + 534 x[5,7] + 487 x[5,8] + 330 x[5,9] - L
   <= 0
 epigraph[6]: 314 x[6,0] + 105 x[6,1] + 558 x[6,2] + 105 x[6,3]
   + 954 x[6,4] + 1079 x[6,5] + 375 x[6,7] + 809 x[6,8] + 843 x[6,9] - L
   <= 0
 epigraph[7]: 765 x[7,0] + 953 x[7,1] + 844 x[7,2] + 618 x[7,3]
   + 794 x[7,4] + 852 x[7,5] + 774 x[7,6] + 488 x[7,8] + 300 x[7,9] - L
   <= 0
 epigraph[8]: 819 x[8,0] + 297 x[8,1] + 543 x[8,2] + 980 x[8,3]
   + 651 x[8,4] + 265 x[8,5] + 287 x[8,6] + 912 x[8,7] + 217 x[8,9] - L
   <= 0
 epigraph[9]: 984 x[9,0] + 798 x[9,1] + 171 x[9,2] + 422 x[9,3]
   + 299 x[9,4] + 583 x[9,5] + 193 x[9,6] + 164 x[9,7] + 389 x[9,8] - L
   <= 0
 p: y[0] + y[1] + y[2] + y[3] + y[4] + y[5] + y[6] + y[7] + y[8] + y[9]
   = 3
 x<y[0,0]: x[0,0] - y[0] <= 0
 x<y[0,1]: x[0,1] - y[1] <= 0
 x<y[0,2]: x[0,2] - y[2] <= 0
 x<y[0,3]: x[0,3] - y[3] <= 0
 x<y[0,4]: x[0,4] - y[4] <= 0
 x<y[0,5]: x[0,5] - y[5] <= 0
 x<y[0,6]: x[0,6] - y[6] <= 0
 x<y[0,7]: x[0,7] - y[7] <= 0
 x<y[0,8]: x[0,8] - y[8] <= 0
 x<y[0,9]: x[0,9] - y[9] <= 0
 x<y[1,0]: x[1,0] - y[0] <= 0
 x<y[1,1]: x[1,1] - y[1] <= 0
 x<y[1,2]: x[1,2] - y[2] <= 0
 x<y[1,3]: x[1,3] - y[3] <= 0
 x<y[1,4]: x[1,4] - y[4] <= 0
 x<y[1,5]: x[1,5] - y[5] <= 0
 x<y[1,6]: x[1,6] - y[6] <= 0
 x<y[1,7]: x[1,7] - y[7] <= 0
 x<y[1,8]: x[1,8] - y[8] <= 0
 x<y[1,9]: x[1,9] - y[9] <= 0
 x<y[2,0]: x[2,0] - y[0] <= 0
 x<y[2,1]: x[2,1] - y[1] <= 0
 x<y[2,2]: x[2,2] - y[2] <= 0
 x<y[2,3]: x[2,3] - y[3] <= 0
 x<y[2,4]: x[2,4] - y[4] <= 0
 x<y[2,5]: x[2,5] - y[5] <= 0
 x<y[2,6]: x[2,6] - y[6] <= 0
 x<y[2,7]: x[2,7] - y[7] <= 0
 x<y[2,8]: x[2,8] - y[8] <= 0
 x<y[2,9]: x[2,9] - y[9] <= 0
 x<y[3,0]: x[3,0] - y[0] <= 0
 x<y[3,1]: x[3,1] - y[1] <= 0
 x<y[3,2]: x[3,2] - y[2] <= 0
 x<y[3,3]: x[3,3] - y[3] <= 0
 x<y[3,4]: x[3,4] - y[4] <= 0
 x<y[3,5]: x[3,5] - y[5] <= 0
 x<y[3,6]: x[3,6] - y[6] <= 0
 x<y[3,7]: x[3,7] - y[7] <= 0
 x<y[3,8]: x[3,8] - y[8] <= 0
 x<y[3,9]: x[3,9] - y[9] <= 0
 x<y[4,0]: x[4,0] - y[0] <= 0
 x<y[4,1]: x[4,1] - y[1] <= 0
 x<y[4,2]: x[4,2] - y[2] <= 0
 x<y[4,3]: x[4,3] - y[3] <= 0
 x<y[4,4]: x[4,4] - y[4] <= 0
 x<y[4,5]: x[4,5] - y[5] <= 0
 x<y[4,6]: x[4,6] - y[6] <= 0
 x<y[4,7]: x[4,7] - y[7] <= 0
 x<y[4,8]: x[4,8] - y[8] <= 0
 x<y[4,9]: x[4,9] - y[9] <= 0
 x<y[5,0]: x[5,0] - y[0] <= 0
 x<y[5,1]: x[5,1] - y[1] <= 0
 x<y[5,2]: x[5,2] - y[2] <= 0
 x<y[5,3]: x[5,3] - y[3] <= 0
 x<y[5,4]: x[5,4] - y[4] <= 0
 x<y[5,5]: x[5,5] - y[5] <= 0
 x<y[5,6]: x[5,6] - y[6] <= 0
 x<y[5,7]: x[5,7] - y[7] <= 0
 x<y[5,8]: x[5,8] - y[8] <= 0
 x<y[5,9]: x[5,9] - y[9] <= 0
 x<y[6,0]: x[6,0] - y[0] <= 0
 x<y[6,1]: x[6,1] - y[1] <= 0
 x<y[6,2]: x[6,2] - y[2] <= 0
 x<y[6,3]: x[6,3] - y[3] <= 0
 x<y[6,4]: x[6,4] - y[4] <= 0
 x<y[6,5]: x[6,5] - y[5] <= 0
 x<y[6,6]: x[6,6] - y[6] <= 0
 x<y[6,7]: x[6,7] - y[7] <= 0
 x<y[6,8]: x[6,8] - y[8] <= 0
 x<y[6,9]: x[6,9] - y[9] <= 0
 x<y[7,0]: x[7,0] - y[0] <= 0
 x<y[7,1]: x[7,1] - y[1] <= 0
 x<y[7,2]: x[7,2] - y[2] <= 0
 x<y[7,3]: x[7,3] - y[3] <= 0
 x<y[7,4]: x[7,4] - y[4] <= 0
 x<y[7,5]: x[7,5] - y[5] <= 0
 x<y[7,6]: x[7,6] - y[6] <= 0
 x<y[7,7]: x[7,7] - y[7] <= 0
 x<y[7,8]: x[7,8] - y[8] <= 0
 x<y[7,9]: x[7,9] - y[9] <= 0
 x<y[8,0]: x[8,0] - y[0] <= 0
 x<y[8,1]: x[8,1] - y[1] <= 0
 x<y[8,2]: x[8,2] - y[2] <= 0
 x<y[8,3]: x[8,3] - y[3] <= 0
 x<y[8,4]: x[8,4] - y[4] <= 0
 x<y[8,5]: x[8,5] - y[5] <= 0
 x<y[8,6]: x[8,6] - y[6] <= 0
 x<y[8,7]: x[8,7] - y[7] <= 0
 x<y[8,8]: x[8,8] - y[8] <= 0
 x<y[8,9]: x[8,9] - y[9] <= 0
 x<y[9,0]: x[9,0] - y[0] <= 0
 x<y[9,1]: x[9,1] - y[1] <= 0
 x<y[9,2]: x[9,2] - y[2] <= 0
 x<y[9,3]: x[9,3] - y[3] <= 0
 x<y[9,4]: x[9,4] - y[4] <= 0
 x<y[9,5]: x[9,5] - y[5] <= 0
 x<y[9,6]: x[9,6] - y[6] <= 0
 x<y[9,7]: x[9,7] - y[7] <= 0
 x<y[9,8]: x[9,8] - y[8] <= 0
 x<y[9,9]: x[9,9] - y[9] <= 0
 sumx[0]: x[0,0] + x[0,1] + x[0,2] + x[0,3] + x[0,4] + x[0,5] + x[0,6]
   + x[0,7] + x[0,8] + x[0,9] = 1
 sumx[1]: x[1,0] + x[1,1] + x[1,2] + x[1,3] + x[1,4] + x[1,5] + x[1,6]
   + x[1,7] + x[1,8] + x[1,9] = 1
 sumx[2]: x[2,0] + x[2,1] + x[2,2] + x[2,3] + x[2,4] + x[2,5] + x[2,6]
   + x[2,7] + x[2,8] + x[2,9] = 1
 sumx[3]: x[3,0] + x[3,1] + x[3,2] + x[3,3] + x[3,4] + x[3,5] + x[3,6]
   + x[3,7] + x[3,8] + x[3,9] = 1
 sumx[4]: x[4,0] + x[4,1] + x[4,2] + x[4,3] + x[4,4] + x[4,5] + x[4,6]
   + x[4,7] + x[4,8] + x[4,9] = 1
 sumx[5]: x[5,0] + x[5,1] + x[5,2] + x[5,3] + x[5,4] + x[5,5] + x[5,6]
   + x[5,7] + x[5,8] + x[5,9] = 1
 sumx[6]: x[6,0] + x[6,1] + x[6,2] + x[6,3] + x[6,4] + x[6,5] + x[6,6]
   + x[6,7] + x[6,8] + x[6,9] = 1
 sumx[7]: x[7,0] + x[7,1] + x[7,2] + x[7,3] + x[7,4] + x[7,5] + x[7,6]
   + x[7,7] + x[7,8] + x[7,9] = 1
 sumx[8]: x[8,0] + x[8,1] + x[8,2] + x[8,3] + x[8,4] + x[8,5] + x[8,6]
   + x[8,7] + x[8,8] + x[8,9] = 1
 sumx[9]: x[9,0] + x[9,1] + x[9,2] + x[9,3] + x[9,4] + x[9,5] + x[9,6]
   + x[9,7] + x[9,8] + x[9,9] = 1
Bounds
Binaries
 y[0] y[1] y[2] y[3] y[4] y[5] y[6] y[7] y[8] y[9]
End
